p cnf 10 20
-9 -13 -17 0
-4 -8 -12 0
-4 -8 -17 0
-4 -8 -23 0
-4 -8 -13 0
-4 -9 -23 0
-4 -13 -23 0
-4 -19 -23 0
-5 -19 -23 0
-9 -19 -23 0
-5 -9 -23 0
-5 -13 -23 0
-15 -19 -23 0
-9 -13 -23 0
-5 -13 -17 0
-5 -9 -13 0
-4 -13 -17 0
-4 -9 -13 0
-4 -9 -17 0
-5 -9 -17 0
